Route #1: 48 19 39 37 25 43 40 3
Route #2: 38 31 24 42 17 20 16 29
Route #3: 2 4 36 44 5 27 6 14
Route #4: 13 26 15 33 45 28 8 35
Route #5: 9 22 51 41 49 52
Route #6: 54 50 7 12 10
Route #7: 53 47 34 21 32 46 30 18 11
Route #8: 23
Cost 1799